69
1 0 1
2 1 1
3 1 1
4 1 1
4 2 1
4 3 1
5 1 1
5 3 1
5 4 1
6 0 1
6 4 1
6 5 1
7 1 1
7 3 1
7 6 1
8 1 1
8 2 1
8 3 1
8 5 1
8 6 1
9 1 1
9 2 1
9 4 1
9 5 1
9 6 1
9 7 1
9 8 1
10 0 1
10 2 1
10 3 1
10 4 1
10 5 1
10 7 1
10 9 1
11 1 1
11 5 1
11 6 1
11 8 1
11 9 1
11 10 1
12 2 1
12 3 1
12 4 1
12 5 1
12 6 1
12 7 1
12 8 1
13 7 1
13 11 1
14 0 1
14 1 1
14 3 1
14 5 1
14 6 1
14 10 1
14 12 1
14 13 1
15 0 1
15 2 1
15 4 1
15 5 1
15 8 1
15 10 1
15 14 1
16 0 1
16 1 1
16 2 1
16 3 1
16 4 1
16 7 1
16 13 1
16 14 1
17 2 1
17 4 1
17 6 1
17 7 1
17 8 1
17 13 1
17 16 1
18 1 1
18 2 1
18 3 1
18 5 1
18 6 1
18 7 1
18 8 1
18 9 1
18 10 1
18 14 1
18 16 1
19 3 1
19 5 1
19 6 1
19 7 1
19 10 1
19 11 1
19 12 1
19 14 1
19 18 1
20 1 1
20 2 1
20 3 1
20 6 1
20 7 1
20 8 1
20 12 1
20 14 1
20 16 1
20 17 1
20 19 1
21 2 1
21 3 1
21 4 1
21 5 1
21 6 1
21 7 1
21 8 1
21 9 1
21 12 1
21 14 1
21 17 1
21 19 1
21 20 1
22 1 1
22 2 1
22 5 1
22 11 1
22 14 1
22 18 1
22 19 1
22 20 1
23 0 1
23 3 1
23 5 1
23 6 1
23 7 1
23 9 1
23 12 1
23 13 1
23 18 1
23 21 1
24 0 1
24 1 1
24 3 1
24 5 1
24 6 1
24 9 1
24 12 1
24 14 1
24 16 1
24 19 1
24 22 1
25 2 1
25 3 1
25 5 1
25 6 1
25 11 1
25 15 1
25 16 1
25 17 1
25 18 1
25 19 1
25 20 1
25 22 1
25 23 1
25 24 1
26 1 1
26 6 1
26 8 1
26 10 1
26 11 1
26 12 1
26 13 1
26 14 1
26 15 1
26 17 1
26 19 1
26 21 1
26 22 1
26 23 1
26 24 1
26 25 1
27 1 1
27 2 1
27 4 1
27 9 1
27 10 1
27 11 1
27 12 1
27 13 1
27 15 1
27 17 1
27 20 1
27 22 1
27 25 1
27 26 1
28 2 1
28 3 1
28 4 1
28 6 1
28 8 1
28 10 1
28 14 1
28 15 1
28 16 1
28 17 1
28 19 1
28 21 1
28 25 1
28 26 1
28 27 1
29 0 1
29 2 1
29 3 1
29 4 1
29 6 1
29 9 1
29 10 1
29 13 1
29 15 1
29 17 1
29 18 1
29 20 1
29 22 1
29 23 1
29 24 1
29 27 1
29 28 1
30 4 1
30 5 1
30 8 1
30 10 1
30 11 1
30 12 1
30 15 1
30 16 1
30 24 1
30 25 1
30 28 1
30 29 1
31 1 1
31 2 1
31 3 1
31 4 1
31 6 1
31 9 1
31 10 1
31 11 1
31 12 1
31 14 1
31 15 1
31 20 1
31 22 1
31 24 1
31 25 1
31 26 1
31 27 1
31 29 1
31 30 1
32 1 1
32 4 1
32 8 1
32 9 1
32 11 1
32 12 1
32 13 1
32 16 1
32 17 1
32 19 1
32 25 1
32 30 1
32 31 1
33 0 1
33 2 1
33 4 1
33 5 1
33 6 1
33 7 1
33 12 1
33 13 1
33 14 1
33 16 1
33 22 1
33 30 1
33 31 1
33 32 1
34 1 1
34 3 1
34 4 1
34 5 1
34 8 1
34 9 1
34 10 1
34 16 1
34 19 1
34 20 1
34 24 1
34 26 1
34 27 1
34 28 1
34 29 1
34 32 1
34 33 1
35 1 1
35 2 1
35 4 1
35 5 1
35 11 1
35 15 1
35 19 1
35 20 1
35 21 1
35 23 1
35 26 1
35 27 1
35 29 1
35 30 1
35 32 1
35 33 1
36 0 1
36 1 1
36 3 1
36 5 1
36 6 1
36 7 1
36 9 1
36 11 1
36 14 1
36 15 1
36 16 1
36 17 1
36 18 1
36 20 1
36 23 1
36 25 1
36 27 1
36 28 1
36 31 1
36 34 1
36 35 1
37 1 1
37 5 1
37 7 1
37 9 1
37 10 1
37 11 1
37 13 1
37 14 1
37 17 1
37 18 1
37 21 1
37 23 1
37 24 1
37 30 1
37 34 1
37 35 1
38 0 1
38 1 1
38 2 1
38 5 1
38 7 1
38 10 1
38 11 1
38 13 1
38 14 1
38 21 1
38 22 1
38 23 1
38 24 1
38 27 1
38 28 1
38 30 1
38 32 1
38 35 1
38 36 1
39 0 1
39 3 1
39 4 1
39 6 1
39 7 1
39 8 1
39 13 1
39 14 1
39 15 1
39 17 1
39 18 1
39 20 1
39 21 1
39 22 1
39 24 1
39 25 1
39 26 1
39 27 1
39 28 1
39 30 1
39 31 1
39 33 1
39 37 1
39 38 1
40 0 1
40 3 1
40 5 1
40 6 1
40 7 1
40 10 1
40 12 1
40 18 1
40 19 1
40 21 1
40 28 1
40 31 1
40 32 1
40 35 1
40 39 1
41 2 1
41 7 1
41 8 1
41 13 1
41 14 1
41 15 1
41 16 1
41 17 1
41 18 1
41 21 1
41 22 1
41 23 1
41 24 1
41 25 1
41 26 1
41 27 1
41 28 1
41 30 1
41 31 1
41 34 1
41 40 1
42 0 1
42 1 1
42 2 1
42 3 1
42 4 1
42 5 1
42 8 1
42 10 1
42 11 1
42 21 1
42 23 1
42 25 1
42 27 1
42 29 1
42 32 1
42 36 1
42 37 1
42 38 1
43 1 1
43 4 1
43 6 1
43 7 1
43 9 1
43 11 1
43 12 1
43 13 1
43 15 1
43 17 1
43 18 1
43 20 1
43 21 1
43 27 1
43 28 1
43 30 1
43 31 1
43 32 1
43 33 1
43 34 1
43 36 1
43 37 1
43 39 1
43 40 1
43 41 1
43 42 1
44 7 1
44 8 1
44 9 1
44 10 1
44 11 1
44 12 1
44 13 1
44 15 1
44 17 1
44 18 1
44 19 1
44 20 1
44 21 1
44 22 1
44 23 1
44 24 1
44 25 1
44 33 1
44 34 1
44 35 1
44 37 1
44 40 1
44 43 1
45 0 1
45 1 1
45 3 1
45 4 1
45 6 1
45 7 1
45 8 1
45 9 1
45 13 1
45 14 1
45 17 1
45 18 1
45 21 1
45 27 1
45 29 1
45 30 1
45 33 1
45 35 1
45 36 1
45 37 1
45 44 1
46 0 1
46 4 1
46 5 1
46 7 1
46 8 1
46 9 1
46 10 1
46 11 1
46 13 1
46 19 1
46 20 1
46 21 1
46 23 1
46 24 1
46 27 1
46 28 1
46 30 1
46 31 1
46 32 1
46 34 1
46 36 1
46 39 1
46 40 1
46 41 1
46 42 1
46 43 1
46 44 1
47 0 1
47 3 1
47 9 1
47 10 1
47 11 1
47 17 1
47 20 1
47 22 1
47 23 1
47 25 1
47 29 1
47 33 1
47 34 1
47 35 1
47 37 1
47 40 1
47 41 1
47 43 1
47 44 1
48 0 1
48 1 1
48 3 1
48 7 1
48 9 1
48 11 1
48 12 1
48 13 1
48 15 1
48 16 1
48 17 1
48 18 1
48 19 1
48 22 1
48 23 1
48 25 1
48 27 1
48 28 1
48 29 1
48 31 1
48 32 1
48 34 1
48 35 1
48 38 1
48 39 1
48 42 1
48 44 1
48 45 1
48 46 1
48 47 1
49 1 1
49 2 1
49 7 1
49 9 1
49 10 1
49 11 1
49 12 1
49 13 1
49 16 1
49 17 1
49 20 1
49 21 1
49 22 1
49 23 1
49 26 1
49 27 1
49 29 1
49 30 1
49 31 1
49 34 1
49 36 1
49 44 1
49 45 1
49 48 1
50 1 1
50 2 1
50 3 1
50 4 1
50 5 1
50 6 1
50 12 1
50 15 1
50 18 1
50 19 1
50 24 1
50 25 1
50 26 1
50 27 1
50 30 1
50 32 1
50 33 1
50 34 1
50 35 1
50 36 1
50 38 1
50 40 1
50 41 1
50 43 1
50 45 1
50 46 1
50 47 1
50 48 1
50 49 1
51 0 1
51 1 1
51 2 1
51 4 1
51 5 1
51 7 1
51 11 1
51 12 1
51 14 1
51 15 1
51 18 1
51 21 1
51 24 1
51 27 1
51 30 1
51 33 1
51 36 1
51 37 1
51 38 1
51 39 1
51 41 1
51 42 1
51 45 1
51 47 1
51 48 1
51 50 1
52 0 1
52 2 1
52 4 1
52 10 1
52 14 1
52 15 1
52 16 1
52 17 1
52 18 1
52 19 1
52 25 1
52 27 1
52 29 1
52 30 1
52 31 1
52 34 1
52 36 1
52 38 1
52 39 1
52 40 1
52 42 1
52 45 1
52 46 1
52 48 1
52 49 1
52 51 1
53 2 1
53 3 1
53 4 1
53 5 1
53 10 1
53 11 1
53 12 1
53 13 1
53 14 1
53 16 1
53 17 1
53 19 1
53 20 1
53 21 1
53 22 1
53 23 1
53 24 1
53 25 1
53 28 1
53 29 1
53 30 1
53 40 1
53 42 1
53 44 1
53 45 1
53 46 1
53 47 1
53 50 1
54 2 1
54 8 1
54 11 1
54 12 1
54 15 1
54 16 1
54 23 1
54 24 1
54 25 1
54 26 1
54 29 1
54 32 1
54 34 1
54 36 1
54 37 1
54 39 1
54 41 1
54 42 1
54 43 1
54 44 1
54 45 1
54 47 1
54 49 1
54 50 1
54 52 1
54 53 1
55 1 1
55 2 1
55 4 1
55 7 1
55 12 1
55 15 1
55 16 1
55 18 1
55 19 1
55 23 1
55 24 1
55 25 1
55 26 1
55 27 1
55 29 1
55 34 1
55 35 1
55 37 1
55 38 1
55 39 1
55 40 1
55 41 1
55 42 1
55 45 1
55 46 1
55 48 1
55 49 1
55 50 1
55 52 1
55 54 1
56 1 1
56 3 1
56 5 1
56 6 1
56 7 1
56 8 1
56 16 1
56 17 1
56 18 1
56 22 1
56 25 1
56 26 1
56 28 1
56 29 1
56 30 1
56 36 1
56 37 1
56 39 1
56 43 1
56 44 1
56 45 1
56 50 1
56 51 1
56 52 1
56 55 1
57 0 1
57 3 1
57 4 1
57 7 1
57 8 1
57 9 1
57 10 1
57 11 1
57 12 1
57 14 1
57 15 1
57 20 1
57 21 1
57 23 1
57 24 1
57 25 1
57 27 1
57 29 1
57 37 1
57 43 1
57 48 1
57 50 1
57 51 1
57 53 1
57 55 1
57 56 1
58 3 1
58 4 1
58 5 1
58 7 1
58 9 1
58 10 1
58 11 1
58 14 1
58 17 1
58 20 1
58 21 1
58 22 1
58 23 1
58 26 1
58 28 1
58 30 1
58 31 1
58 33 1
58 34 1
58 37 1
58 39 1
58 42 1
58 43 1
58 44 1
58 45 1
58 46 1
58 48 1
58 50 1
58 53 1
58 55 1
58 56 1
58 57 1
59 4 1
59 5 1
59 6 1
59 7 1
59 8 1
59 12 1
59 13 1
59 14 1
59 18 1
59 21 1
59 22 1
59 24 1
59 25 1
59 28 1
59 31 1
59 33 1
59 34 1
59 36 1
59 37 1
59 40 1
59 43 1
59 48 1
59 52 1
59 53 1
60 0 1
60 1 1
60 4 1
60 6 1
60 7 1
60 8 1
60 9 1
60 11 1
60 14 1
60 15 1
60 18 1
60 19 1
60 20 1
60 21 1
60 24 1
60 25 1
60 26 1
60 31 1
60 32 1
60 35 1
60 37 1
60 38 1
60 39 1
60 40 1
60 42 1
60 43 1
60 45 1
60 46 1
60 47 1
60 48 1
60 49 1
60 52 1
60 54 1
60 55 1
60 56 1
60 57 1
60 58 1
60 59 1
61 2 1
61 3 1
61 4 1
61 6 1
61 7 1
61 8 1
61 9 1
61 13 1
61 14 1
61 15 1
61 16 1
61 20 1
61 23 1
61 24 1
61 25 1
61 28 1
61 30 1
61 31 1
61 36 1
61 37 1
61 40 1
61 42 1
61 43 1
61 44 1
61 45 1
61 46 1
61 47 1
61 48 1
61 55 1
61 56 1
61 58 1
61 60 1
62 0 1
62 1 1
62 2 1
62 7 1
62 10 1
62 11 1
62 14 1
62 16 1
62 18 1
62 19 1
62 24 1
62 25 1
62 27 1
62 29 1
62 33 1
62 34 1
62 38 1
62 40 1
62 41 1
62 43 1
62 44 1
62 46 1
62 47 1
62 48 1
62 51 1
62 52 1
62 53 1
62 54 1
62 55 1
62 56 1
62 57 1
62 59 1
63 0 1
63 2 1
63 3 1
63 4 1
63 7 1
63 9 1
63 10 1
63 13 1
63 14 1
63 15 1
63 16 1
63 17 1
63 19 1
63 23 1
63 26 1
63 28 1
63 30 1
63 31 1
63 32 1
63 33 1
63 34 1
63 40 1
63 41 1
63 42 1
63 43 1
63 48 1
63 49 1
63 52 1
63 55 1
63 56 1
63 57 1
63 59 1
63 61 1
64 1 1
64 3 1
64 5 1
64 6 1
64 7 1
64 8 1
64 9 1
64 12 1
64 13 1
64 14 1
64 16 1
64 20 1
64 23 1
64 24 1
64 25 1
64 28 1
64 29 1
64 34 1
64 35 1
64 39 1
64 41 1
64 42 1
64 48 1
64 49 1
64 50 1
64 53 1
64 55 1
64 56 1
64 57 1
64 58 1
64 59 1
64 60 1
64 63 1
65 1 1
65 7 1
65 8 1
65 9 1
65 10 1
65 11 1
65 12 1
65 13 1
65 22 1
65 24 1
65 25 1
65 30 1
65 31 1
65 34 1
65 35 1
65 38 1
65 45 1
65 46 1
65 47 1
65 48 1
65 53 1
65 55 1
65 56 1
65 59 1
65 60 1
65 61 1
65 64 1
66 0 1
66 5 1
66 7 1
66 12 1
66 13 1
66 14 1
66 16 1
66 18 1
66 20 1
66 24 1
66 27 1
66 33 1
66 36 1
66 38 1
66 39 1
66 41 1
66 44 1
66 45 1
66 46 1
66 47 1
66 48 1
66 51 1
66 53 1
66 56 1
66 57 1
66 60 1
66 61 1
66 63 1
67 0 1
67 6 1
67 8 1
67 11 1
67 13 1
67 14 1
67 15 1
67 17 1
67 19 1
67 21 1
67 24 1
67 27 1
67 32 1
67 33 1
67 34 1
67 37 1
67 38 1
67 39 1
67 41 1
67 43 1
67 46 1
67 51 1
67 52 1
67 55 1
67 57 1
67 59 1
67 60 1
67 61 1
67 63 1
67 64 1
67 65 1
68 0 1
68 1 1
68 6 1
68 8 1
68 11 1
68 18 1
68 23 1
68 26 1
68 27 1
68 30 1
68 31 1
68 35 1
68 38 1
68 39 1
68 40 1
68 41 1
68 42 1
68 43 1
68 44 1
68 45 1
68 48 1
68 49 1
68 53 1
68 55 1
68 59 1
68 62 1
68 65 1
